H31 He31 Li1
1.0
  10.0000000000000000    0.0000000000000000    0.0000000000000000
   0.0000000000000000   10.0000000000000000    0.0000000000000000
   0.0000000000000000    0.0000000000000000   10.0000000000000000
H He Li
31 31 1
direct
   0.0000000000000000    0.0000000000000000    0.5000000000000000 H
   0.0000000000000000    0.5000000000000000    0.0000000000000000 H
   0.0000000000000000    0.5000000000000000    0.5000000000000000 H
   0.5000000000000000    0.0000000000000000    0.0000000000000000 H
   0.5000000000000000    0.0000000000000000    0.5000000000000000 H
   0.5000000000000000    0.5000000000000000    0.0000000000000000 H
   0.5000000000000000    0.5000000000000000    0.5000000000000000 H
   0.0000000000000000    0.2500000000000000    0.2500000000000000 H
   0.0000000000000000    0.2500000000000000    0.7500000000000000 H
   0.0000000000000000    0.7500000000000000    0.2500000000000000 H
   0.0000000000000000    0.7500000000000000    0.7500000000000000 H
   0.5000000000000000    0.2500000000000000    0.2500000000000000 H
   0.5000000000000000    0.2500000000000000    0.7500000000000000 H
   0.5000000000000000    0.7500000000000000    0.2500000000000000 H
   0.5000000000000000    0.7500000000000000    0.7500000000000000 H
   0.2500000000000000    0.0000000000000000    0.2500000000000000 H
   0.2500000000000000    0.0000000000000000    0.7500000000000000 H
   0.2500000000000000    0.5000000000000000    0.2500000000000000 H
   0.2500000000000000    0.5000000000000000    0.7500000000000000 H
   0.7500000000000000    0.0000000000000000    0.2500000000000000 H
   0.7500000000000000    0.0000000000000000    0.7500000000000000 H
   0.7500000000000000    0.5000000000000000    0.2500000000000000 H
   0.7500000000000000    0.5000000000000000    0.7500000000000000 H
   0.2500000000000000    0.2500000000000000    0.0000000000000000 H
   0.2500000000000000    0.2500000000000000    0.5000000000000000 H
   0.2500000000000000    0.7500000000000000    0.0000000000000000 H
   0.2500000000000000    0.7500000000000000    0.5000000000000000 H
   0.7500000000000000    0.2500000000000000    0.0000000000000000 H
   0.7500000000000000    0.2500000000000000    0.5000000000000000 H
   0.7500000000000000    0.7500000000000000    0.0000000000000000 H
   0.7500000000000000    0.7500000000000000    0.5000000000000000 H
   0.2500000000000000    0.0000000000000000    0.5000000000000000 He
   0.2500000000000000    0.5000000000000000    0.0000000000000000 He
   0.2500000000000000    0.5000000000000000    0.5000000000000000 He
   0.7500000000000000    0.0000000000000000    0.0000000000000000 He
   0.7500000000000000    0.0000000000000000    0.5000000000000000 He
   0.7500000000000000    0.5000000000000000    0.0000000000000000 He
   0.7500000000000000    0.5000000000000000    0.5000000000000000 He
   0.2500000000000000    0.2500000000000000    0.2500000000000000 He
   0.2500000000000000    0.2500000000000000    0.7500000000000000 He
   0.2500000000000000    0.7500000000000000    0.2500000000000000 He
   0.2500000000000000    0.7500000000000000    0.7500000000000000 He
   0.7500000000000000    0.2500000000000000    0.2500000000000000 He
   0.7500000000000000    0.2500000000000000    0.7500000000000000 He
   0.7500000000000000    0.7500000000000000    0.2500000000000000 He
   0.7500000000000000    0.7500000000000000    0.7500000000000000 He
   0.0000000000000000    0.0000000000000000    0.2500000000000000 He
   0.0000000000000000    0.0000000000000000    0.7500000000000000 He
   0.0000000000000000    0.5000000000000000    0.2500000000000000 He
   0.0000000000000000    0.5000000000000000    0.7500000000000000 He
   0.5000000000000000    0.0000000000000000    0.2500000000000000 He
   0.5000000000000000    0.0000000000000000    0.7500000000000000 He
   0.5000000000000000    0.5000000000000000    0.2500000000000000 He
   0.5000000000000000    0.5000000000000000    0.7500000000000000 He
   0.0000000000000000    0.2500000000000000    0.0000000000000000 He
   0.0000000000000000    0.2500000000000000    0.5000000000000000 He
   0.0000000000000000    0.7500000000000000    0.0000000000000000 He
   0.0000000000000000    0.7500000000000000    0.5000000000000000 He
   0.5000000000000000    0.2500000000000000    0.0000000000000000 He
   0.5000000000000000    0.2500000000000000    0.5000000000000000 He
   0.5000000000000000    0.7500000000000000    0.0000000000000000 He
   0.5000000000000000    0.7500000000000000    0.5000000000000000 He
   0.1240000000000000    0.0000000000000000    0.0000000000000000 Li
